nNurses = 148;
nHours = 37;
minHours = 10;
maxHours = 17;
maxConsec = 13;
maxPresence = 29;
demand = [47, 49, 45, 41, 40, 41, 44, 40, 39, 39, 39, 35, 39, 35, 39, 40, 44, 48, 45, 50, 46, 42, 39, 43, 43, 42, 39, 39, 40, 42, 45, 49, 47, 45, 49, 48, 44];
